NAME: pr107
DIMENSION: 16
EDGE_WEIGHT_TYPE: EUC_2D
NODE_COORD_SECTION
1 8375 4700
2 8775 4700
3 8375 4900
4 8175 4900
5 8775 4900
6 8575 4900
7 8775 5400
8 8375 5450
9 8775 5600
10 8575 5600
11 8375 5650
12 8175 5650
13 8375 6200
14 8775 6200
15 8375 6400
16 8175 6400
ACCEPTED_PROBABILITIES
0.0
0.84
0.71
0.09
0.5
0.22
0.31
0.28
0.1
0.01
0.43
0.2
0.77
0.28
0.11
0.01
OUTSOURCING_COSTS
0.0
59.36
110.63
68.13
54.52
113.24
58.56
19.49
32.04
62.36
82.4
2.44
59.43
55.85
10.96
75.15
